
Gurobi 7.0.2 (linux64) logging started Mon Jun 12 11:09:02 2017

Changed value of parameter logfile to result/NEIS-20170612T0949/scenario_100000PVS30PVWE10var-cost0027.log
   Prev: gurobi.log  Default: 
Optimize a model with 1059933 rows, 937229 columns and 3979188 nonzeros
Coefficient statistics:
  Matrix range     [8e-04, 1e+05]
  Objective range  [1e+00, 1e+00]
  Bounds range     [0e+00, 0e+00]
  RHS range        [3e-03, 1e+05]

Concurrent LP optimizer: primal simplex, dual simplex, and barrier
Showing barrier log only...

Presolve removed 594694 rows and 643281 columns
Presolve time: 2.65s
Presolved: 465239 rows, 293948 columns, 1347043 nonzeros

Ordering time: 0.40s

Barrier statistics:
 Dense cols : 21
 AA' NZ     : 1.881e+06
 Factor NZ  : 6.959e+06 (roughly 400 MBytes of memory)
 Factor Ops : 1.640e+08 (less than 1 second per iteration)
 Threads    : 22

                  Objective                Residual
Iter       Primal          Dual         Primal    Dual     Compl     Time
   0   3.86420510e+11 -2.66645278e+11  9.53e+02 6.93e+03  2.20e+07     4s
   1   3.05998400e+11 -9.70500622e+10  7.05e+02 1.33e+04  7.03e+06     4s
   2   2.98750586e+11 -6.88963635e+10  6.91e+02 8.97e+03  5.68e+06     5s
   3   2.08204964e+11 -1.16880289e+11  4.79e+02 1.94e+03  5.33e+06     6s
   4   3.84623371e+10 -1.14231291e+11  6.30e+01 1.66e+02  8.44e+05     6s
   5   3.99908784e+09 -5.91881367e+10  5.17e+00 3.15e+00  1.26e+05     7s
   6   5.23898893e+08 -1.61137892e+10  3.19e-01 2.79e-06  2.42e+04     7s
   7   2.50916431e+08 -2.38273686e+09  4.76e-02 1.00e-06  3.68e+03     8s
   8   1.40275535e+08 -1.01933160e+09  9.65e-03 5.65e-07  1.61e+03     8s
   9   8.70347470e+07 -1.41972263e+08  8.23e-04 7.84e-08  3.16e+02     9s
  10   8.43879202e+07 -2.13846888e+07  7.71e-04 3.75e-08  1.46e+02     9s
  11   5.83597115e+07 -1.62442650e+07  4.82e-04 3.06e-08  1.03e+02    10s
  12   4.85421701e+07 -1.46508600e+07  3.64e-04 3.21e-08  8.73e+01    10s
  13   4.37099553e+07  2.16183988e+06  3.01e-04 8.21e-09  5.74e+01    11s
  14   2.77214200e+07  9.44531267e+06  1.40e-04 1.51e-09  2.52e+01    11s
  15   2.61579415e+07  1.06108347e+07  1.25e-04 1.36e-09  2.15e+01    12s
  16   2.12988348e+07  1.07789792e+07  8.12e-05 1.30e-09  1.45e+01    12s
  17   2.06417853e+07 -4.76277699e+04  7.55e-05 7.08e-10  2.86e+01    13s
  18   1.76215433e+07  6.70496718e+06  4.43e-05 5.97e-10  1.51e+01    14s
  19   1.67393962e+07  8.57233323e+06  3.48e-05 4.37e-10  1.13e+01    14s
  20   1.56916835e+07  1.00623280e+07  2.35e-05 4.66e-10  7.77e+00    14s
  21   1.52443262e+07  1.08747776e+07  1.86e-05 2.04e-09  6.03e+00    15s
  22   1.48038845e+07  1.15965116e+07  1.40e-05 1.11e-09  4.43e+00    15s
  23   1.45709469e+07  1.21555645e+07  1.14e-05 8.15e-09  3.34e+00    16s
  24   1.42058579e+07  1.25130171e+07  7.60e-06 7.68e-09  2.34e+00    16s
  25   1.39562442e+07  1.29489827e+07  5.05e-06 1.22e-08  1.39e+00    17s
  26   1.38195844e+07  1.30849575e+07  3.67e-06 1.39e-08  1.01e+00    18s
  27   1.37388923e+07  1.31610458e+07  2.84e-06 1.36e-08  7.98e-01    18s
  28   1.37014053e+07  1.31970742e+07  2.45e-06 1.26e-08  6.96e-01    19s
  29   1.36706261e+07  1.32547884e+07  2.14e-06 1.53e-08  5.74e-01    19s
  30   1.36153168e+07  1.33139770e+07  1.61e-06 1.59e-08  4.16e-01    20s
  31   1.35827475e+07  1.33392280e+07  1.28e-06 1.33e-08  3.36e-01    20s
  32   1.35393991e+07  1.33659196e+07  8.59e-07 1.33e-08  2.40e-01    21s
  33   1.35118064e+07  1.33920224e+07  5.99e-07 1.29e-08  1.65e-01    21s
  34   1.34997567e+07  1.34086837e+07  4.84e-07 1.02e-08  1.26e-01    22s
  35   1.34919482e+07  1.34146403e+07  4.11e-07 9.20e-09  1.07e-01    22s
  36   1.34844109e+07  1.34206106e+07  3.44e-07 5.06e-09  8.81e-02    23s
  37   1.34784499e+07  1.34237316e+07  2.90e-07 5.06e-09  7.56e-02    23s
  38   1.34729358e+07  1.34282329e+07  2.40e-07 8.50e-09  6.17e-02    24s
  39   1.34682953e+07  1.34314262e+07  1.97e-07 9.31e-09  5.09e-02    24s
  40   1.34630556e+07  1.34359902e+07  1.47e-07 1.59e-08  3.74e-02    25s
  41   1.34574752e+07  1.34376561e+07  9.95e-08 1.33e-08  2.74e-02    25s
  42   1.34552727e+07  1.34410453e+07  7.98e-08 1.12e-08  1.96e-02    26s
  43   1.34533804e+07  1.34421613e+07  6.32e-08 6.75e-09  1.55e-02    26s
  44   1.34527593e+07  1.34424356e+07  5.77e-08 7.86e-09  1.43e-02    27s
  45   1.34526763e+07  1.34426634e+07  5.70e-08 9.84e-09  1.38e-02    27s
  46   1.34512291e+07  1.34437371e+07  4.54e-08 3.09e-09  1.03e-02    28s
  47   1.34504789e+07  1.34440329e+07  3.87e-08 4.77e-09  8.90e-03    28s
  48   1.34498904e+07  1.34445353e+07  3.40e-08 5.09e-10  7.40e-03    29s
  49   1.34496357e+07  1.34448558e+07  3.17e-08 4.80e-10  6.60e-03    29s
  50   1.34493101e+07  1.34450191e+07  2.91e-08 2.10e-09  5.93e-03    30s
  51   1.34488374e+07  1.34451428e+07  2.50e-08 4.37e-10  5.10e-03    30s
  52   1.34487241e+07  1.34452082e+07  2.40e-08 4.37e-10  4.86e-03    31s
  53   1.34486836e+07  1.34452528e+07  2.37e-08 4.25e-09  4.74e-03    31s
  54   1.34486208e+07  1.34452830e+07  2.31e-08 8.91e-09  4.61e-03    32s
  55   1.34484377e+07  1.34452991e+07  2.15e-08 1.02e-08  4.33e-03    32s
  56   1.34479101e+07  1.34453438e+07  1.72e-08 1.25e-08  3.54e-03    33s
  57   1.34477172e+07  1.34454251e+07  1.57e-08 1.49e-08  3.17e-03    33s
  58   1.34476313e+07  1.34455129e+07  1.49e-08 2.66e-08  2.93e-03    34s
  59   1.34472496e+07  1.34455222e+07  1.15e-08 2.54e-08  2.39e-03    34s
  60   1.34472083e+07  1.34455739e+07  1.12e-08 1.58e-08  2.26e-03    35s
  61   1.34470592e+07  1.34455914e+07  9.86e-09 1.79e-08  2.03e-03    35s
  62   1.34470331e+07  1.34456101e+07  9.65e-09 1.45e-08  1.97e-03    36s
  63   1.34469279e+07  1.34456324e+07  8.73e-09 6.58e-09  1.79e-03    36s
  64   1.34468146e+07  1.34456863e+07  7.80e-09 2.32e-08  1.56e-03    37s
  65   1.34466202e+07  1.34457307e+07  6.09e-09 6.11e-09  1.23e-03    37s
  66   1.34466052e+07  1.34457583e+07  5.96e-09 5.46e-10  1.17e-03    38s
  67   1.34465552e+07  1.34457837e+07  5.51e-09 1.59e-08  1.07e-03    39s
  68   1.34464479e+07  1.34458295e+07  4.54e-09 4.96e-08  8.54e-04    39s
  69   1.34463907e+07  1.34458517e+07  4.04e-09 3.79e-08  7.44e-04    40s
  70   1.34463150e+07  1.34458660e+07  3.37e-09 1.57e-08  6.20e-04    40s
  71   1.34462376e+07  1.34458783e+07  2.68e-09 1.46e-08  4.96e-04    41s
  72   1.34461823e+07  1.34458845e+07  2.18e-09 1.12e-08  4.11e-04    42s
  73   1.34461383e+07  1.34458931e+07  1.79e-09 8.91e-09  3.39e-04    43s
  74   1.34461200e+07  1.34459060e+07  1.64e-09 6.26e-09  2.95e-04    44s
  75   1.34460644e+07  1.34459138e+07  1.14e-09 6.58e-09  2.08e-04    45s
  76   1.34460552e+07  1.34459164e+07  1.08e-09 1.04e-08  1.92e-04    45s
  77   1.34460412e+07  1.34459231e+07  2.73e-08 3.45e-07  1.63e-04    46s
  78   1.34460024e+07  1.34459275e+07  1.71e-08 2.33e-07  1.03e-04    47s
  79   1.34459679e+07  1.34459311e+07  3.52e-07 1.80e-07  5.09e-05    47s
  80   1.34459668e+07  1.34459313e+07  9.66e-07 1.40e-07  4.91e-05    48s
  81   1.34459570e+07  1.34459350e+07  6.39e-07 8.38e-09  3.03e-05    49s
  82   1.34459570e+07  1.34459350e+07  2.52e-06 6.05e-09  3.03e-05    50s
  83   1.34459569e+07  1.34459350e+07  2.51e-06 6.06e-09  3.02e-05    50s
  84   1.34459569e+07  1.34459350e+07  2.51e-06 1.57e-09  3.02e-05    51s
  85   1.34459569e+07  1.34459350e+07  2.50e-06 8.00e-10  3.02e-05    52s
  86   6.63469912e+11 -2.66645278e+11  2.34e+03 6.93e+03  5.31e+07    53s
  87   4.94083043e+11 -3.67819093e+11  1.53e+03 1.63e+03  1.45e+07    55s
  88   5.96379507e+10 -1.56512181e+11  8.18e+00 2.38e+01  3.62e+05    56s
  89   1.35849769e+09 -1.12540419e+10  7.77e-02 4.42e-04  1.76e+04    58s
  90   1.63052644e+08 -5.02946945e+08  5.93e-04 1.23e-05  9.20e+02    59s
  91   8.43224190e+07 -4.99483354e+07  1.50e-04 1.55e-06  1.85e+02    60s
  92   8.00529123e+07 -4.46343877e+07  1.25e-04 1.48e-06  1.72e+02    61s
  93   3.51248435e+07 -1.88513890e+07  2.90e-05 8.75e-07  7.45e+01    62s
  94   2.56985374e+07  2.69590914e+06  1.47e-05 2.81e-07  3.18e+01    62s
  95   2.16894790e+07  7.56127281e+06  9.60e-06 1.37e-07  1.95e+01    63s
  96   1.89384265e+07  9.67693636e+06  6.27e-06 8.70e-08  1.28e+01    63s
  97   1.70938309e+07  1.13130168e+07  4.08e-06 4.85e-08  7.98e+00    64s
  98   1.61909886e+07  1.21263112e+07  3.05e-06 2.90e-08  5.61e+00    64s
  99   1.59003141e+07  1.25064532e+07  2.73e-06 1.97e-08  4.69e+00    64s
 100   1.58035213e+07  1.14197873e+07  2.63e-06 1.49e-08  6.05e+00    65s
 101   1.53814171e+07  1.17778089e+07  2.16e-06 1.21e-08  4.98e+00    65s
 102   1.49718335e+07  1.23730286e+07  1.70e-06 7.57e-09  3.59e+00    66s
 103   1.48132822e+07  1.25331960e+07  1.48e-06 6.93e-09  3.15e+00    66s
 104   1.43386109e+07  1.28342612e+07  9.59e-07 6.98e-09  2.08e+00    67s
 105   1.41661695e+07  1.29775772e+07  7.66e-07 7.33e-09  1.64e+00    67s
 106   1.40431282e+07  1.30581707e+07  6.31e-07 8.50e-09  1.36e+00    67s
 107   1.38342021e+07  1.31869959e+07  3.93e-07 1.22e-08  8.94e-01    68s
 108   1.37766945e+07  1.32277423e+07  3.30e-07 9.31e-09  7.58e-01    68s
 109   1.36879233e+07  1.32769445e+07  2.39e-07 1.18e-08  5.68e-01    69s
 110   1.36212675e+07  1.33124502e+07  1.81e-07 1.79e-08  4.26e-01    69s
 111   1.35933315e+07  1.33448431e+07  1.58e-07 1.53e-08  3.43e-01    70s
 112   1.35625846e+07  1.33595178e+07  1.25e-07 1.26e-08  2.80e-01    70s
 113   1.35333656e+07  1.33822576e+07  9.11e-08 1.71e-08  2.09e-01    70s
 114   1.35118533e+07  1.33978871e+07  6.78e-08 1.46e-08  1.57e-01    71s
 115   1.34940753e+07  1.34099917e+07  4.90e-08 7.68e-09  1.16e-01    71s
 116   1.34840330e+07  1.34175584e+07  3.85e-08 7.74e-09  9.18e-02    72s
 117   1.34782277e+07  1.34249692e+07  3.25e-08 3.78e-09  7.35e-02    72s
 118   1.34724574e+07  1.34298515e+07  2.65e-08 6.58e-09  5.88e-02    72s
 119   1.34647888e+07  1.34323447e+07  1.86e-08 6.81e-09  4.48e-02    73s
 120   1.34623943e+07  1.34353624e+07  1.63e-08 5.06e-09  3.73e-02    73s
 121   1.34580677e+07  1.34373656e+07  1.19e-08 1.15e-08  2.86e-02    74s
 122   1.34550986e+07  1.34391216e+07  8.88e-09 1.39e-08  2.21e-02    74s
 123   1.34534683e+07  1.34406519e+07  7.31e-09 1.13e-08  1.77e-02    75s
 124   1.34521953e+07  1.34415915e+07  6.03e-09 1.25e-08  1.46e-02    75s
 125   1.34515664e+07  1.34418936e+07  5.40e-09 1.32e-08  1.34e-02    76s
 126   1.34506984e+07  1.34426385e+07  4.54e-09 9.08e-09  1.11e-02    76s
 127   1.34502358e+07  1.34433131e+07  4.08e-09 3.03e-09  9.56e-03    76s
 128   1.34494980e+07  1.34437388e+07  3.37e-09 7.86e-09  7.95e-03    77s
 129   1.34492504e+07  1.34439878e+07  3.14e-09 1.38e-08  7.27e-03    77s
 130   1.34488398e+07  1.34442436e+07  2.73e-09 1.06e-08  6.35e-03    78s
 131   1.34486158e+07  1.34443819e+07  2.52e-09 6.00e-09  5.85e-03    78s
 132   1.34485537e+07  1.34444352e+07  2.46e-09 8.38e-09  5.69e-03    79s
 133   1.34482156e+07  1.34447756e+07  2.15e-09 8.51e-10  4.75e-03    79s
 134   1.34480564e+07  1.34448484e+07  2.01e-09 8.88e-10  4.43e-03    80s
 135   1.34478989e+07  1.34449666e+07  1.85e-09 1.03e-09  4.05e-03    80s
 136   1.34476670e+07  1.34450903e+07  1.63e-09 8.73e-10  3.56e-03    81s
 137   1.34474208e+07  1.34452298e+07  1.40e-09 5.97e-10  3.03e-03    81s
 138   1.34470122e+07  1.34453799e+07  1.10e-09 3.06e-10  2.25e-03    82s
 139   1.34467947e+07  1.34455468e+07  8.80e-10 7.28e-11  1.72e-03    82s
 140   1.34467806e+07  1.34455592e+07  8.65e-10 1.46e-11  1.69e-03    83s
 141   1.34466771e+07  1.34456273e+07  7.59e-10 1.67e-10  1.45e-03    83s
 142   1.34465889e+07  1.34457182e+07  6.68e-10 1.34e-09  1.20e-03    84s
 143   1.34464750e+07  1.34457858e+07  5.52e-10 4.07e-10  9.52e-04    85s
 144   1.34464118e+07  1.34458092e+07  4.85e-10 3.49e-10  8.32e-04    85s
 145   1.34463315e+07  1.34458250e+07  4.03e-10 1.46e-10  6.99e-04    86s
 146   1.34462873e+07  1.34458349e+07  3.56e-10 2.62e-10  6.25e-04    87s
 147   1.34462651e+07  1.34458478e+07  3.33e-10 1.53e-10  5.76e-04    87s
 148   1.34461808e+07  1.34458623e+07  2.45e-10 5.82e-10  4.40e-04    88s
 149   1.34461334e+07  1.34458995e+07  1.97e-10 1.75e-10  3.23e-04    89s
 150   1.34461149e+07  1.34459058e+07  1.79e-10 4.37e-10  2.89e-04    89s
 151   1.34460560e+07  1.34459128e+07  1.19e-10 1.63e-09  1.98e-04    90s
 152   1.34460412e+07  1.34459158e+07  3.02e-09 2.11e-10  1.73e-04    91s
 153   1.34460169e+07  1.34459207e+07  1.00e-07 2.10e-09  1.33e-04    91s
 154   1.34460155e+07  1.34459210e+07  1.04e-06 8.22e-10  1.31e-04    92s
 155   1.34460152e+07  1.34459210e+07  1.45e-06 1.36e-09  1.30e-04    93s
 156   1.34460024e+07  1.34459230e+07  1.19e-06 3.84e-09  1.10e-04    93s
 157   1.34460024e+07  1.34459230e+07  1.46e-06 5.68e-10  1.10e-04    94s
 158   1.34460008e+07  1.34459231e+07  1.79e-06 8.73e-11  1.07e-04    94s
 159   1.34459649e+07  1.34459334e+07  7.83e-07 3.40e-09  4.34e-05    95s
 160   1.34459586e+07  1.34459337e+07  6.09e-07 3.03e-09  3.44e-05    96s
 161   1.34459566e+07  1.34459338e+07  5.53e-07 2.97e-09  3.14e-05    96s
 162   1.34459541e+07  1.34459346e+07  1.12e-06 2.79e-09  2.69e-05    97s
 163   1.34459541e+07  1.34459346e+07  1.12e-06 2.11e-09  2.69e-05    98s
 164   1.34459541e+07  1.34459346e+07  1.12e-06 2.08e-09  2.69e-05    99s
 165   1.34459541e+07  1.34459346e+07  2.97e-06 2.47e-10  2.69e-05   100s
 166   1.34459541e+07  1.34459346e+07  2.97e-06 1.22e-09  2.69e-05   101s
 167   1.34459541e+07  1.34459346e+07  2.97e-06 2.47e-10  2.69e-05   102s
 168   1.34459541e+07  1.34459346e+07  2.97e-06 3.32e-09  2.69e-05   103s
 169   1.34459541e+07  1.34459346e+07  2.97e-06 2.33e-10  2.69e-05   103s
 170   1.34459541e+07  1.34459346e+07  2.96e-06 3.20e-10  2.69e-05   104s
 171   1.34459541e+07  1.34459346e+07  2.96e-06 6.55e-11  2.69e-05   105s
 172   1.34459541e+07  1.34459346e+07  2.96e-06 3.49e-10  2.69e-05   106s

Barrier performed 172 iterations in 106.35 seconds
Sub-optimal termination - objective 1.34459570e+07

Crossover log...

  170443 DPushes remaining with DInf 0.0000000e+00               107s
   43828 DPushes remaining with DInf 0.0000000e+00               110s
   38132 DPushes remaining with DInf 0.0000000e+00               115s
   33504 DPushes remaining with DInf 0.0000000e+00               120s
   29588 DPushes remaining with DInf 0.0000000e+00               125s
   22468 DPushes remaining with DInf 0.0000000e+00               130s
   16772 DPushes remaining with DInf 0.0000000e+00               135s
   10341 DPushes remaining with DInf 0.0000000e+00               140s
    5990 DPushes remaining with DInf 0.0000000e+00               146s
    4917 DPushes remaining with DInf 0.0000000e+00               150s
    2763 DPushes remaining with DInf 0.0000000e+00               156s
       0 DPushes remaining with DInf 2.5692795e-09               157s

  168356 PPushes remaining with PInf 8.1158741e-03               157s
    3101 PPushes remaining with PInf 2.1603243e-01               160s
       0 PPushes remaining with PInf 1.4182046e-04               162s

  Push phase complete: Pinf 1.4182046e-04, Dinf 1.3014559e+03    162s

Iteration    Objective       Primal Inf.    Dual Inf.      Time
  337998    1.3445937e+07   0.000000e+00   1.301456e+03    162s
  338233    1.3445937e+07   0.000000e+00   0.000000e+00    163s

Solved with barrier
Solved in 338233 iterations and 163.44 seconds
Optimal objective  1.344593664e+07
